1686506
54,104,97,88,36,28,13,78,93,33,76,7,8,68,40,18,99,19,60,87,62,96,53,74,92,56,103,30,6,95,61,85,43,32,84,51,59,2,81,46,94,16,107,29,44,79,4,67,23,15,64,22,11,49,41,26,37,77,66,9,45,5,101,1,98,35,82,34,52,83,20,3,63,25,90,109,24,10,38,72,75,57,86,27,69,70,14,39,31,89,91,100,80,21,48,17,73,71,47,108,50,12,106,65,105,55,42,102,58